c Reduced graph for GEOM100_0 generated by Cyril Grelier
p edge 98 536
e 1 2
e 1 3
e 1 4
e 1 10
e 1 12
e 1 13
e 1 14
e 1 19
e 1 22
e 1 24
e 1 27
e 1 32
e 1 37
e 1 39
e 1 42
e 1 45
e 1 47
e 1 63
e 2 3
e 2 4
e 2 10
e 2 12
e 2 13
e 2 14
e 2 19
e 2 22
e 2 23
e 2 24
e 2 27
e 2 37
e 2 39
e 2 42
e 2 45
e 2 47
e 3 4
e 3 5
e 3 10
e 3 12
e 3 13
e 3 14
e 3 16
e 3 23
e 3 24
e 3 26
e 3 33
e 3 52
e 3 57
e 3 69
e 3 89
e 4 5
e 4 10
e 4 12
e 4 13
e 4 14
e 4 15
e 4 16
e 4 24
e 4 26
e 4 50
e 4 52
e 4 75
e 4 79
e 5 7
e 5 11
e 5 15
e 5 16
e 5 17
e 5 24
e 5 26
e 5 41
e 5 50
e 5 52
e 5 72
e 5 75
e 5 79
e 6 7
e 6 8
e 6 9
e 6 11
e 6 17
e 6 18
e 6 20
e 6 21
e 6 25
e 6 29
e 6 30
e 6 36
e 6 41
e 6 46
e 6 50
e 7 8
e 7 11
e 7 15
e 7 16
e 7 17
e 7 20
e 7 25
e 7 26
e 7 41
e 7 50
e 7 52
e 7 72
e 7 75
e 8 9
e 8 11
e 8 17
e 8 18
e 8 20
e 8 21
e 8 25
e 8 29
e 8 30
e 8 36
e 8 41
e 8 46
e 8 97
e 9 11
e 9 17
e 9 18
e 9 20
e 9 25
e 9 29
e 9 30
e 9 36
e 9 43
e 9 53
e 9 65
e 9 68
e 9 97
e 10 12
e 10 13
e 10 14
e 10 22
e 10 23
e 10 24
e 10 33
e 10 57
e 10 66
e 10 69
e 10 95
e 11 15
e 11 16
e 11 17
e 11 20
e 11 25
e 11 26
e 11 41
e 11 46
e 11 50
e 11 75
e 12 13
e 12 14
e 12 19
e 12 22
e 12 23
e 12 24
e 12 33
e 12 42
e 12 57
e 12 66
e 13 14
e 13 22
e 13 23
e 13 24
e 13 33
e 13 57
e 13 66
e 13 95
e 14 19
e 14 22
e 14 23
e 14 24
e 14 33
e 14 57
e 14 66
e 15 16
e 15 17
e 15 20
e 15 25
e 15 26
e 15 41
e 15 50
e 15 52
e 15 72
e 15 75
e 16 17
e 16 24
e 16 26
e 16 50
e 16 52
e 16 69
e 16 72
e 16 89
e 17 25
e 17 26
e 17 43
e 17 52
e 17 72
e 17 97
e 18 25
e 18 29
e 18 30
e 18 43
e 18 53
e 18 65
e 18 68
e 18 85
e 18 87
e 18 91
e 18 97
e 19 22
e 19 24
e 19 27
e 19 32
e 19 37
e 19 39
e 19 42
e 19 45
e 19 47
e 19 54
e 20 21
e 20 25
e 20 30
e 20 36
e 20 41
e 20 46
e 20 50
e 20 75
e 21 29
e 21 30
e 21 36
e 21 40
e 21 46
e 21 53
e 21 59
e 21 61
e 21 88
e 21 91
e 21 92
e 22 23
e 22 37
e 22 42
e 22 47
e 22 57
e 22 66
e 23 24
e 23 33
e 23 57
e 23 66
e 23 69
e 23 95
e 24 33
e 25 26
e 25 41
e 25 43
e 25 97
e 26 52
e 26 69
e 26 72
e 26 89
e 27 32
e 27 37
e 27 39
e 27 42
e 27 45
e 27 47
e 27 54
e 27 63
e 27 70
e 27 79
e 28 51
e 28 56
e 28 58
e 28 60
e 28 67
e 28 71
e 28 73
e 28 74
e 28 77
e 28 78
e 28 82
e 28 90
e 28 96
e 29 30
e 29 36
e 29 40
e 29 46
e 29 53
e 29 61
e 29 88
e 29 91
e 30 36
e 30 40
e 30 46
e 30 53
e 30 61
e 30 91
e 31 34
e 31 35
e 31 38
e 31 44
e 31 48
e 31 49
e 31 55
e 31 62
e 31 64
e 31 81
e 31 86
e 31 98
e 32 37
e 32 39
e 32 42
e 32 45
e 32 47
e 32 54
e 32 63
e 32 70
e 32 79
e 33 57
e 33 66
e 33 69
e 33 89
e 33 95
e 34 35
e 34 38
e 34 48
e 34 49
e 34 58
e 34 59
e 34 62
e 34 64
e 34 73
e 34 78
e 34 82
e 35 38
e 35 40
e 35 44
e 35 48
e 35 49
e 35 55
e 35 59
e 35 61
e 35 62
e 35 64
e 36 40
e 36 46
e 36 53
e 36 59
e 36 61
e 37 39
e 37 42
e 37 45
e 37 47
e 37 54
e 37 63
e 38 44
e 38 48
e 38 49
e 38 55
e 38 62
e 38 64
e 38 81
e 38 86
e 38 98
e 39 42
e 39 45
e 39 47
e 39 54
e 39 63
e 39 70
e 40 46
e 40 48
e 40 59
e 40 61
e 40 62
e 40 88
e 40 92
e 41 46
e 41 50
e 41 75
e 41 79
e 42 45
e 42 47
e 42 54
e 43 65
e 43 68
e 43 85
e 43 87
e 43 93
e 43 94
e 43 97
e 44 48
e 44 49
e 44 55
e 44 62
e 44 64
e 44 81
e 44 86
e 44 98
e 45 47
e 45 54
e 45 63
e 46 59
e 47 54
e 48 49
e 48 55
e 48 59
e 48 62
e 48 64
e 49 55
e 49 62
e 49 64
e 49 78
e 49 82
e 50 75
e 50 79
e 51 56
e 51 60
e 51 67
e 51 71
e 51 74
e 51 76
e 51 77
e 51 80
e 51 83
e 51 84
e 52 69
e 52 72
e 52 89
e 53 61
e 53 65
e 53 68
e 53 88
e 53 91
e 54 63
e 54 70
e 54 76
e 55 64
e 55 81
e 55 86
e 55 92
e 55 98
e 56 58
e 56 60
e 56 71
e 56 73
e 56 74
e 56 77
e 56 78
e 56 82
e 56 90
e 57 66
e 57 95
e 58 59
e 58 73
e 58 77
e 58 78
e 58 82
e 58 90
e 58 96
e 59 62
e 59 73
e 60 67
e 60 71
e 60 74
e 60 77
e 60 80
e 60 83
e 60 84
e 61 88
e 61 91
e 61 92
e 62 64
e 63 70
e 63 79
e 63 96
e 64 81
e 65 68
e 65 85
e 65 87
e 65 93
e 65 94
e 66 95
e 67 71
e 67 74
e 67 76
e 67 80
e 67 83
e 67 84
e 68 85
e 68 87
e 68 93
e 68 94
e 69 72
e 69 89
e 70 76
e 70 80
e 70 90
e 70 96
e 71 74
e 71 80
e 71 83
e 71 84
e 72 89
e 73 78
e 73 82
e 73 90
e 73 96
e 74 77
e 74 83
e 74 84
e 75 79
e 76 80
e 76 83
e 76 84
e 76 90
e 77 78
e 77 82
e 78 82
e 80 83
e 80 84
e 81 86
e 81 92
e 81 98
e 83 84
e 85 87
e 85 93
e 85 94
e 86 92
e 86 98
e 87 93
e 87 94
e 88 91
e 88 92
e 90 96
e 93 94
